proyfinal/src/viki/013/andrea/andrea-localstore/experimentInOfficeAgust.take6/worker_5/3be52af6-19c8-4871-a781-9f07a11fad44.als.cnf.out
Reading from standard input... Use '--help' for help.
============================[ Problem Statistics ]=============================
|                                                                             |
|  Number of variables:         87638                                         |
|  Number of clauses:          161767                                         |
|  Parse time:                   0.04 s                                       |
|                                                                             |
============================[ Search Statistics ]==============================
| Conflicts |          ORIGINAL         |          LEARNT          | Progress |
|           |    Vars  Clauses Literals |    Limit  Clauses Lit/Cl |          |
===============================================================================
|       100 |   65398   116024   289559 |    42542      100     12 | 25.377 % |
|       250 |   65398   116024   289559 |    46796      250     51 | 25.377 % |
|       475 |   65398   116024   289559 |    51475      475     62 | 25.377 % |
|       812 |   65398   116024   289559 |    56623      812     51 | 25.377 % |
|      1318 |   65372   115916   289312 |    62285     1317     45 | 25.407 % |
|      2077 |   65372   115916   289312 |    68514     2076     50 | 25.407 % |
|      3216 |   65372   115916   289312 |    75365     3215     52 | 25.407 % |
|      4924 |   65372   115916   289312 |    82902     4923     60 | 25.407 % |
|      7486 |   56758    88651   222343 |    91192     7322     84 | 35.236 % |
|     11330 |   56653    88208   221362 |   100312    11152     85 | 35.356 % |
|     17096 |   56267    86571   217462 |   110343    16692     86 | 35.796 % |
===============================================================================
restarts              : 70
conflicts             : 20287          (7078 /sec)
decisions             : 85045          (0.00 % random) (29670 /sec)
propagations          : 29260272       (10208181 /sec)
conflict literals     : 1769830        (39.58 % deleted)
Memory used           : 40.07 MB
CPU time              : 2.86635 s

INDETERMINATE
